9
0, 417, 415, 621, 159, 225, 284, 425, 605
417, 0, 464, 394, 348, 495, 459, 405, 511
415, 464, 0, 840, 263, 635, 672, 746, 214
621, 394, 840, 0, 648, 534, 445, 258, 905
159, 348, 263, 648, 0, 372, 410, 505, 445
225, 495, 635, 534, 372, 0, 94, 285, 811
284, 459, 672, 445, 410, 94, 0, 192, 832
425, 405, 746, 258, 505, 285, 192, 0, 869
605, 511, 214, 905, 445, 811, 832, 869, 0
